NAME : n60w60.005.669.tour
COMMENT : Length = 669
COMMENT : Found by LKH [Keld Helsgaun] Tue May  2 05:46:15 2017
TYPE : TOUR
DIMENSION : 61
TOUR_SECTION
1
8
30
11
27
13
46
3
25
36
49
35
58
39
51
7
40
4
54
19
28
24
21
26
47
38
23
57
37
9
18
32
12
42
6
16
14
10
41
55
33
34
53
15
59
44
50
45
22
48
31
20
60
2
52
5
29
56
61
17
43
-1
EOF
